p wcnf 381 1084
w -2 0.367879 0
w 2 2.718282 0
w -3 0.367879 0
w 3 2.718282 0
w -4 0.367879 0
w 4 2.718282 0
w -5 0.367879 0
w 5 2.718282 0
w -6 0.367879 0
w 6 2.718282 0
w -7 0.367879 0
w 7 2.718282 0
w -9 0.367879 0
w 9 2.718282 0
w -10 0.367879 0
w 10 2.718282 0
w -11 0.367879 0
w 11 2.718282 0
w -12 0.367879 0
w 12 2.718282 0
w -14 0.367879 0
w 14 2.718282 0
w -15 0.367879 0
w 15 2.718282 0
w -16 0.367879 0
w 16 2.718282 0
w -17 0.367879 0
w 17 2.718282 0
w -19 0.367879 0
w 19 2.718282 0
w -20 0.367879 0
w 20 2.718282 0
w -21 0.367879 0
w 21 2.718282 0
w -22 0.367879 0
w 22 2.718282 0
w -23 0.367879 0
w 23 2.718282 0
w -24 0.367879 0
w 24 2.718282 0
w -25 0.367879 0
w 25 2.718282 0
w -26 0.367879 0
w 26 2.718282 0
w -27 0.367879 0
w 27 2.718282 0
w -28 0.367879 0
w 28 2.718282 0
w -30 0.367879 0
w 30 2.718282 0
w -31 0.367879 0
w 31 2.718282 0
w -32 0.367879 0
w 32 2.718282 0
w -33 0.367879 0
w 33 2.718282 0
w -34 0.367879 0
w 34 2.718282 0
w -35 0.367879 0
w 35 2.718282 0
w -36 0.367879 0
w 36 2.718282 0
w -38 0.367879 0
w 38 2.718282 0
w -39 0.367879 0
w 39 2.718282 0
w -40 0.367879 0
w 40 2.718282 0
w -41 0.367879 0
w 41 2.718282 0
w -42 0.367879 0
w 42 2.718282 0
w -44 0.367879 0
w 44 2.718282 0
w -45 0.367879 0
w 45 2.718282 0
w -46 0.367879 0
w 46 2.718282 0
w -47 0.367879 0
w 47 2.718282 0
w -49 0.367879 0
w 49 2.718282 0
w -50 0.367879 0
w 50 2.718282 0
w -51 0.367879 0
w 51 2.718282 0
w -52 0.367879 0
w 52 2.718282 0
w -54 0.367879 0
w 54 2.718282 0
w -55 0.367879 0
w 55 2.718282 0
w -56 0.367879 0
w 56 2.718282 0
w -57 0.367879 0
w 57 2.718282 0
w -58 0.367879 0
w 58 2.718282 0
w -59 0.367879 0
w 59 2.718282 0
w -60 0.367879 0
w 60 2.718282 0
w -61 0.367879 0
w 61 2.718282 0
w -63 0.367879 0
w 63 2.718282 0
w -64 0.367879 0
w 64 2.718282 0
w -65 0.367879 0
w 65 2.718282 0
w -67 0.367879 0
w 67 2.718282 0
w -68 0.367879 0
w 68 2.718282 0
w -69 0.367879 0
w 69 2.718282 0
w -70 0.367879 0
w 70 2.718282 0
w -71 0.367879 0
w 71 2.718282 0
w -73 0.367879 0
w 73 2.718282 0
w -74 0.367879 0
w 74 2.718282 0
w -75 0.367879 0
w 75 2.718282 0
w -76 0.367879 0
w 76 2.718282 0
w -77 0.367879 0
w 77 2.718282 0
w -78 0.367879 0
w 78 2.718282 0
w -80 0.367879 0
w 80 2.718282 0
w -81 0.367879 0
w 81 2.718282 0
w -82 0.367879 0
w 82 2.718282 0
w -83 0.367879 0
w 83 2.718282 0
w -84 0.367879 0
w 84 2.718282 0
w -85 0.367879 0
w 85 2.718282 0
w -86 0.367879 0
w 86 2.718282 0
w -88 0.367879 0
w 88 2.718282 0
w -89 0.367879 0
w 89 2.718282 0
w -90 0.367879 0
w 90 2.718282 0
w -92 0.367879 0
w 92 2.718282 0
w -93 0.367879 0
w 93 2.718282 0
w -94 0.367879 0
w 94 2.718282 0
w -96 0.367879 0
w 96 2.718282 0
w -98 0.367879 0
w 98 2.718282 0
w -99 0.367879 0
w 99 2.718282 0
w -100 0.367879 0
w 100 2.718282 0
w -101 0.367879 0
w 101 2.718282 0
w -102 0.367879 0
w 102 2.718282 0
w -103 0.367879 0
w 103 2.718282 0
w -105 0.367879 0
w 105 2.718282 0
w -106 0.367879 0
w 106 2.718282 0
w -107 0.367879 0
w 107 2.718282 0
w -108 0.367879 0
w 108 2.718282 0
w -109 0.367879 0
w 109 2.718282 0
w -111 0.367879 0
w 111 2.718282 0
w -112 0.367879 0
w 112 2.718282 0
w -114 0.367879 0
w 114 2.718282 0
w -115 0.367879 0
w 115 2.718282 0
w -116 0.367879 0
w 116 2.718282 0
w -117 0.367879 0
w 117 2.718282 0
w -118 0.367879 0
w 118 2.718282 0
w -120 0.367879 0
w 120 2.718282 0
w -121 0.367879 0
w 121 2.718282 0
w -122 0.367879 0
w 122 2.718282 0
w -123 0.367879 0
w 123 2.718282 0
w -124 0.367879 0
w 124 2.718282 0
w -125 0.367879 0
w 125 2.718282 0
w -127 0.367879 0
w 127 2.718282 0
w -128 0.367879 0
w 128 2.718282 0
w -130 0.367879 0
w 130 2.718282 0
w -131 0.367879 0
w 131 2.718282 0
w -133 0.367879 0
w 133 2.718282 0
w -134 0.367879 0
w 134 2.718282 0
w -136 0.367879 0
w 136 2.718282 0
w -137 0.367879 0
w 137 2.718282 0
w -138 0.367879 0
w 138 2.718282 0
w -139 0.367879 0
w 139 2.718282 0
w -140 0.367879 0
w 140 2.718282 0
w -142 0.367879 0
w 142 2.718282 0
w -143 0.367879 0
w 143 2.718282 0
w -144 0.367879 0
w 144 2.718282 0
w -145 0.367879 0
w 145 2.718282 0
w -146 0.367879 0
w 146 2.718282 0
w -148 0.367879 0
w 148 2.718282 0
w -149 0.367879 0
w 149 2.718282 0
w -150 0.367879 0
w 150 2.718282 0
w -151 0.367879 0
w 151 2.718282 0
w -152 0.367879 0
w 152 2.718282 0
w -153 0.367879 0
w 153 2.718282 0
w -154 0.367879 0
w 154 2.718282 0
w -155 0.367879 0
w 155 2.718282 0
w -157 0.367879 0
w 157 2.718282 0
w -159 0.367879 0
w 159 2.718282 0
w -161 0.367879 0
w 161 2.718282 0
w -163 0.367879 0
w 163 2.718282 0
w -164 0.367879 0
w 164 2.718282 0
w -166 0.367879 0
w 166 2.718282 0
w -167 0.367879 0
w 167 2.718282 0
w -168 0.367879 0
w 168 2.718282 0
w -169 0.367879 0
w 169 2.718282 0
w -170 0.367879 0
w 170 2.718282 0
w -172 0.367879 0
w 172 2.718282 0
w -173 0.367879 0
w 173 2.718282 0
w -174 0.367879 0
w 174 2.718282 0
w -175 0.367879 0
w 175 2.718282 0
w -176 0.367879 0
w 176 2.718282 0
w -178 0.367879 0
w 178 2.718282 0
w -179 0.367879 0
w 179 2.718282 0
w -180 0.367879 0
w 180 2.718282 0
w -181 0.367879 0
w 181 2.718282 0
w -183 0.367879 0
w 183 2.718282 0
w -184 0.367879 0
w 184 2.718282 0
w -185 0.367879 0
w 185 2.718282 0
w -187 0.367879 0
w 187 2.718282 0
w -189 0.367879 0
w 189 2.718282 0
w -191 0.367879 0
w 191 2.718282 0
w -192 0.367879 0
w 192 2.718282 0
w -193 0.367879 0
w 193 2.718282 0
w -194 0.367879 0
w 194 2.718282 0
w -195 0.367879 0
w 195 2.718282 0
w -197 0.367879 0
w 197 2.718282 0
w -198 0.367879 0
w 198 2.718282 0
w -199 0.367879 0
w 199 2.718282 0
w -200 0.367879 0
w 200 2.718282 0
w -201 0.367879 0
w 201 2.718282 0
w -202 0.367879 0
w 202 2.718282 0
w -203 0.367879 0
w 203 2.718282 0
w -204 0.367879 0
w 204 2.718282 0
w -206 0.367879 0
w 206 2.718282 0
w -207 0.367879 0
w 207 2.718282 0
w -208 0.367879 0
w 208 2.718282 0
w -209 0.367879 0
w 209 2.718282 0
w -211 0.367879 0
w 211 2.718282 0
w -212 0.367879 0
w 212 2.718282 0
w -214 0.367879 0
w 214 2.718282 0
w -216 0.367879 0
w 216 2.718282 0
w -217 0.367879 0
w 217 2.718282 0
w -218 0.367879 0
w 218 2.718282 0
w -219 0.367879 0
w 219 2.718282 0
w -220 0.367879 0
w 220 2.718282 0
w -221 0.367879 0
w 221 2.718282 0
w -223 0.367879 0
w 223 2.718282 0
w -224 0.367879 0
w 224 2.718282 0
w -225 0.367879 0
w 225 2.718282 0
w -226 0.367879 0
w 226 2.718282 0
w -227 0.367879 0
w 227 2.718282 0
w -229 0.367879 0
w 229 2.718282 0
w -230 0.367879 0
w 230 2.718282 0
w -232 0.367879 0
w 232 2.718282 0
w -233 0.367879 0
w 233 2.718282 0
w -236 0.367879 0
w 236 2.718282 0
w -237 0.367879 0
w 237 2.718282 0
w -238 0.367879 0
w 238 2.718282 0
w -239 0.367879 0
w 239 2.718282 0
w -241 0.367879 0
w 241 2.718282 0
w -242 0.367879 0
w 242 2.718282 0
w -243 0.367879 0
w 243 2.718282 0
w -245 0.367879 0
w 245 2.718282 0
w -246 0.367879 0
w 246 2.718282 0
w -247 0.367879 0
w 247 2.718282 0
w -248 0.367879 0
w 248 2.718282 0
w -251 0.367879 0
w 251 2.718282 0
w -253 0.367879 0
w 253 2.718282 0
w -254 0.367879 0
w 254 2.718282 0
w -255 0.367879 0
w 255 2.718282 0
w -256 0.367879 0
w 256 2.718282 0
w -257 0.367879 0
w 257 2.718282 0
w -258 0.367879 0
w 258 2.718282 0
w -260 0.367879 0
w 260 2.718282 0
w -261 0.367879 0
w 261 2.718282 0
w -262 0.367879 0
w 262 2.718282 0
w -263 0.367879 0
w 263 2.718282 0
w -265 0.367879 0
w 265 2.718282 0
w -267 0.367879 0
w 267 2.718282 0
w -268 0.367879 0
w 268 2.718282 0
w -269 0.367879 0
w 269 2.718282 0
w -271 0.367879 0
w 271 2.718282 0
w -272 0.367879 0
w 272 2.718282 0
w -274 0.367879 0
w 274 2.718282 0
w -275 0.367879 0
w 275 2.718282 0
w -276 0.367879 0
w 276 2.718282 0
w -279 0.367879 0
w 279 2.718282 0
w -280 0.367879 0
w 280 2.718282 0
w -282 0.367879 0
w 282 2.718282 0
w -285 0.367879 0
w 285 2.718282 0
w -286 0.367879 0
w 286 2.718282 0
w -288 0.367879 0
w 288 2.718282 0
w -290 0.367879 0
w 290 2.718282 0
w -291 0.367879 0
w 291 2.718282 0
w -292 0.367879 0
w 292 2.718282 0
w -294 0.367879 0
w 294 2.718282 0
w -295 0.367879 0
w 295 2.718282 0
w -296 0.367879 0
w 296 2.718282 0
w -298 0.367879 0
w 298 2.718282 0
w -299 0.367879 0
w 299 2.718282 0
w -302 0.367879 0
w 302 2.718282 0
w -303 0.367879 0
w 303 2.718282 0
w -305 0.367879 0
w 305 2.718282 0
w -307 0.367879 0
w 307 2.718282 0
w -309 0.367879 0
w 309 2.718282 0
w -310 0.367879 0
w 310 2.718282 0
w -312 0.367879 0
w 312 2.718282 0
w -313 0.367879 0
w 313 2.718282 0
w -314 0.367879 0
w 314 2.718282 0
w -316 0.367879 0
w 316 2.718282 0
w -318 0.367879 0
w 318 2.718282 0
w -320 0.367879 0
w 320 2.718282 0
w -321 0.367879 0
w 321 2.718282 0
w -322 0.367879 0
w 322 2.718282 0
w -324 0.367879 0
w 324 2.718282 0
w -325 0.367879 0
w 325 2.718282 0
w -327 0.367879 0
w 327 2.718282 0
w -328 0.367879 0
w 328 2.718282 0
w -331 0.367879 0
w 331 2.718282 0
w -332 0.367879 0
w 332 2.718282 0
w -334 0.367879 0
w 334 2.718282 0
w -335 0.367879 0
w 335 2.718282 0
w -336 0.367879 0
w 336 2.718282 0
w -341 0.367879 0
w 341 2.718282 0
w -343 0.367879 0
w 343 2.718282 0
w -345 0.367879 0
w 345 2.718282 0
w -346 0.367879 0
w 346 2.718282 0
w -348 0.367879 0
w 348 2.718282 0
w -350 0.367879 0
w 350 2.718282 0
w -351 0.367879 0
w 351 2.718282 0
w -357 0.367879 0
w 357 2.718282 0
w -359 0.367879 0
w 359 2.718282 0
w -361 0.367879 0
w 361 2.718282 0
w -362 0.367879 0
w 362 2.718282 0
w -363 0.367879 0
w 363 2.718282 0
w -366 0.367879 0
w 366 2.718282 0
w -368 0.367879 0
w 368 2.718282 0
w -370 0.367879 0
w 370 2.718282 0
w -372 0.367879 0
w 372 2.718282 0
2 1 113 0
2 -1 -113 0
-2 1 -113 0
-2 -1 113 0
3 1 119 0
3 -1 -119 0
-3 1 -119 0
-3 -1 119 0
4 1 171 0
4 -1 -171 0
-4 1 -171 0
-4 -1 171 0
5 1 287 0
5 -1 -287 0
-5 1 -287 0
-5 -1 287 0
6 1 342 0
6 -1 -342 0
-6 1 -342 0
-6 -1 342 0
7 1 355 0
7 -1 -355 0
-7 1 -355 0
-7 -1 355 0
9 8 222 0
9 -8 -222 0
-9 8 -222 0
-9 -8 222 0
10 8 231 0
10 -8 -231 0
-10 8 -231 0
-10 -8 231 0
11 8 252 0
11 -8 -252 0
-11 8 -252 0
-11 -8 252 0
12 8 277 0
12 -8 -277 0
-12 8 -277 0
-12 -8 277 0
14 13 66 0
14 -13 -66 0
-14 13 -66 0
-14 -13 66 0
15 13 158 0
15 -13 -158 0
-15 13 -158 0
-15 -13 158 0
16 13 234 0
16 -13 -234 0
-16 13 -234 0
-16 -13 234 0
17 13 369 0
17 -13 -369 0
-17 13 -369 0
-17 -13 369 0
19 18 53 0
19 -18 -53 0
-19 18 -53 0
-19 -18 53 0
20 18 177 0
20 -18 -177 0
-20 18 -177 0
-20 -18 177 0
21 18 228 0
21 -18 -228 0
-21 18 -228 0
-21 -18 228 0
22 18 323 0
22 -18 -323 0
-22 18 -323 0
-22 -18 323 0
23 18 338 0
23 -18 -338 0
-23 18 -338 0
-23 -18 338 0
24 18 340 0
24 -18 -340 0
-24 18 -340 0
-24 -18 340 0
25 18 347 0
25 -18 -347 0
-25 18 -347 0
-25 -18 347 0
26 18 356 0
26 -18 -356 0
-26 18 -356 0
-26 -18 356 0
27 18 375 0
27 -18 -375 0
-27 18 -375 0
-27 -18 375 0
28 18 377 0
28 -18 -377 0
-28 18 -377 0
-28 -18 377 0
30 29 119 0
30 -29 -119 0
-30 29 -119 0
-30 -29 119 0
31 29 278 0
31 -29 -278 0
-31 29 -278 0
-31 -29 278 0
32 29 289 0
32 -29 -289 0
-32 29 -289 0
-32 -29 289 0
33 29 347 0
33 -29 -347 0
-33 29 -347 0
-33 -29 347 0
34 29 349 0
34 -29 -349 0
-34 29 -349 0
-34 -29 349 0
35 29 364 0
35 -29 -364 0
-35 29 -364 0
-35 -29 364 0
36 29 379 0
36 -29 -379 0
-36 29 -379 0
-36 -29 379 0
38 37 156 0
38 -37 -156 0
-38 37 -156 0
-38 -37 156 0
39 37 240 0
39 -37 -240 0
-39 37 -240 0
-39 -37 240 0
40 37 277 0
40 -37 -277 0
-40 37 -277 0
-40 -37 277 0
41 37 339 0
41 -37 -339 0
-41 37 -339 0
-41 -37 339 0
42 37 365 0
42 -37 -365 0
-42 37 -365 0
-42 -37 365 0
44 43 215 0
44 -43 -215 0
-44 43 -215 0
-44 -43 215 0
45 43 283 0
45 -43 -283 0
-45 43 -283 0
-45 -43 283 0
46 43 323 0
46 -43 -323 0
-46 43 -323 0
-46 -43 323 0
47 43 373 0
47 -43 -373 0
-47 43 -373 0
-47 -43 373 0
49 48 132 0
49 -48 -132 0
-49 48 -132 0
-49 -48 132 0
50 48 160 0
50 -48 -160 0
-50 48 -160 0
-50 -48 160 0
51 48 347 0
51 -48 -347 0
-51 48 -347 0
-51 -48 347 0
52 48 380 0
52 -48 -380 0
-52 48 -380 0
-52 -48 380 0
54 53 72 0
54 -53 -72 0
-54 53 -72 0
-54 -53 72 0
55 53 132 0
55 -53 -132 0
-55 53 -132 0
-55 -53 132 0
56 53 147 0
56 -53 -147 0
-56 53 -147 0
-56 -53 147 0
57 53 188 0
57 -53 -188 0
-57 53 -188 0
-57 -53 188 0
58 53 234 0
58 -53 -234 0
-58 53 -234 0
-58 -53 234 0
59 53 264 0
59 -53 -264 0
-59 53 -264 0
-59 -53 264 0
60 53 308 0
60 -53 -308 0
-60 53 -308 0
-60 -53 308 0
61 53 378 0
61 -53 -378 0
-61 53 -378 0
-61 -53 378 0
63 62 165 0
63 -62 -165 0
-63 62 -165 0
-63 -62 165 0
64 62 304 0
64 -62 -304 0
-64 62 -304 0
-64 -62 304 0
65 62 329 0
65 -62 -329 0
-65 62 -329 0
-65 -62 329 0
67 66 205 0
67 -66 -205 0
-67 66 -205 0
-67 -66 205 0
68 66 287 0
68 -66 -287 0
-68 66 -287 0
-68 -66 287 0
69 66 326 0
69 -66 -326 0
-69 66 -326 0
-69 -66 326 0
70 66 337 0
70 -66 -337 0
-70 66 -337 0
-70 -66 337 0
71 66 339 0
71 -66 -339 0
-71 66 -339 0
-71 -66 339 0
73 72 213 0
73 -72 -213 0
-73 72 -213 0
-73 -72 213 0
74 72 264 0
74 -72 -264 0
-74 72 -264 0
-74 -72 264 0
75 72 278 0
75 -72 -278 0
-75 72 -278 0
-75 -72 278 0
76 72 323 0
76 -72 -323 0
-76 72 -323 0
-76 -72 323 0
77 72 338 0
77 -72 -338 0
-77 72 -338 0
-77 -72 338 0
78 72 352 0
78 -72 -352 0
-78 72 -352 0
-78 -72 352 0
80 79 132 0
80 -79 -132 0
-80 79 -132 0
-80 -79 132 0
81 79 234 0
81 -79 -234 0
-81 79 -234 0
-81 -79 234 0
82 79 235 0
82 -79 -235 0
-82 79 -235 0
-82 -79 235 0
83 79 264 0
83 -79 -264 0
-83 79 -264 0
-83 -79 264 0
84 79 283 0
84 -79 -283 0
-84 79 -283 0
-84 -79 283 0
85 79 306 0
85 -79 -306 0
-85 79 -306 0
-85 -79 306 0
86 79 353 0
86 -79 -353 0
-86 79 -353 0
-86 -79 353 0
88 87 156 0
88 -87 -156 0
-88 87 -156 0
-88 -87 156 0
89 87 188 0
89 -87 -188 0
-89 87 -188 0
-89 -87 188 0
90 87 356 0
90 -87 -356 0
-90 87 -356 0
-90 -87 356 0
92 91 171 0
92 -91 -171 0
-92 91 -171 0
-92 -91 171 0
93 91 205 0
93 -91 -205 0
-93 91 -205 0
-93 -91 205 0
94 91 308 0
94 -91 -308 0
-94 91 -308 0
-94 -91 308 0
96 95 329 0
96 -95 -329 0
-96 95 -329 0
-96 -95 329 0
98 97 104 0
98 -97 -104 0
-98 97 -104 0
-98 -97 104 0
99 97 235 0
99 -97 -235 0
-99 97 -235 0
-99 -97 235 0
100 97 281 0
100 -97 -281 0
-100 97 -281 0
-100 -97 281 0
101 97 289 0
101 -97 -289 0
-101 97 -289 0
-101 -97 289 0
102 97 319 0
102 -97 -319 0
-102 97 -319 0
-102 -97 319 0
103 97 371 0
103 -97 -371 0
-103 97 -371 0
-103 -97 371 0
105 104 205 0
105 -104 -205 0
-105 104 -205 0
-105 -104 205 0
106 104 215 0
106 -104 -215 0
-106 104 -215 0
-106 -104 215 0
107 104 235 0
107 -104 -235 0
-107 104 -235 0
-107 -104 235 0
108 104 306 0
108 -104 -306 0
-108 104 -306 0
-108 -104 306 0
109 104 339 0
109 -104 -339 0
-109 104 -339 0
-109 -104 339 0
111 110 188 0
111 -110 -188 0
-111 110 -188 0
-111 -110 188 0
112 110 333 0
112 -110 -333 0
-112 110 -333 0
-112 -110 333 0
114 113 165 0
114 -113 -165 0
-114 113 -165 0
-114 -113 165 0
115 113 235 0
115 -113 -235 0
-115 113 -235 0
-115 -113 235 0
116 113 293 0
116 -113 -293 0
-116 113 -293 0
-116 -113 293 0
117 113 347 0
117 -113 -347 0
-117 113 -347 0
-117 -113 347 0
118 113 374 0
118 -113 -374 0
-118 113 -374 0
-118 -113 374 0
120 119 222 0
120 -119 -222 0
-120 119 -222 0
-120 -119 222 0
121 119 249 0
121 -119 -249 0
-121 119 -249 0
-121 -119 249 0
122 119 339 0
122 -119 -339 0
-122 119 -339 0
-122 -119 339 0
123 119 353 0
123 -119 -353 0
-123 119 -353 0
-123 -119 353 0
124 119 377 0
124 -119 -377 0
-124 119 -377 0
-124 -119 377 0
125 119 381 0
125 -119 -381 0
-125 119 -381 0
-125 -119 381 0
127 126 190 0
127 -126 -190 0
-127 126 -190 0
-127 -126 190 0
128 126 377 0
128 -126 -377 0
-128 126 -377 0
-128 -126 377 0
130 129 266 0
130 -129 -266 0
-130 129 -266 0
-130 -129 266 0
131 129 344 0
131 -129 -344 0
-131 129 -344 0
-131 -129 344 0
133 132 231 0
133 -132 -231 0
-133 132 -231 0
-133 -132 231 0
134 132 308 0
134 -132 -308 0
-134 132 -308 0
-134 -132 308 0
136 135 177 0
136 -135 -177 0
-136 135 -177 0
-136 -135 177 0
137 135 205 0
137 -135 -205 0
-137 135 -205 0
-137 -135 205 0
138 135 240 0
138 -135 -240 0
-138 135 -240 0
-138 -135 240 0
139 135 342 0
139 -135 -342 0
-139 135 -342 0
-139 -135 342 0
140 135 367 0
140 -135 -367 0
-140 135 -367 0
-140 -135 367 0
142 141 317 0
142 -141 -317 0
-142 141 -317 0
-142 -141 317 0
143 141 323 0
143 -141 -323 0
-143 141 -323 0
-143 -141 323 0
144 141 358 0
144 -141 -358 0
-144 141 -358 0
-144 -141 358 0
145 141 376 0
145 -141 -376 0
-145 141 -376 0
-145 -141 376 0
146 141 381 0
146 -141 -381 0
-146 141 -381 0
-146 -141 381 0
148 147 188 0
148 -147 -188 0
-148 147 -188 0
-148 -147 188 0
149 147 210 0
149 -147 -210 0
-149 147 -210 0
-149 -147 210 0
150 147 264 0
150 -147 -264 0
-150 147 -264 0
-150 -147 264 0
151 147 301 0
151 -147 -301 0
-151 147 -301 0
-151 -147 301 0
152 147 364 0
152 -147 -364 0
-152 147 -364 0
-152 -147 364 0
153 147 376 0
153 -147 -376 0
-153 147 -376 0
-153 -147 376 0
154 147 378 0
154 -147 -378 0
-154 147 -378 0
-154 -147 378 0
155 147 379 0
155 -147 -379 0
-155 147 -379 0
-155 -147 379 0
157 156 365 0
157 -156 -365 0
-157 156 -365 0
-157 -156 365 0
159 158 270 0
159 -158 -270 0
-159 158 -270 0
-159 -158 270 0
161 160 213 0
161 -160 -213 0
-161 160 -213 0
-161 -160 213 0
163 162 375 0
163 -162 -375 0
-163 162 -375 0
-163 -162 375 0
164 162 380 0
164 -162 -380 0
-164 162 -380 0
-164 -162 380 0
166 165 188 0
166 -165 -188 0
-166 165 -188 0
-166 -165 188 0
167 165 249 0
167 -165 -249 0
-167 165 -249 0
-167 -165 249 0
168 165 306 0
168 -165 -306 0
-168 165 -306 0
-168 -165 306 0
169 165 311 0
169 -165 -311 0
-169 165 -311 0
-169 -165 311 0
170 165 352 0
170 -165 -352 0
-170 165 -352 0
-170 -165 352 0
172 171 186 0
172 -171 -186 0
-172 171 -186 0
-172 -171 186 0
173 171 277 0
173 -171 -277 0
-173 171 -277 0
-173 -171 277 0
174 171 287 0
174 -171 -287 0
-174 171 -287 0
-174 -171 287 0
175 171 304 0
175 -171 -304 0
-175 171 -304 0
-175 -171 304 0
176 171 347 0
176 -171 -347 0
-176 171 -347 0
-176 -171 347 0
178 177 283 0
178 -177 -283 0
-178 177 -283 0
-178 -177 283 0
179 177 287 0
179 -177 -287 0
-179 177 -287 0
-179 -177 287 0
180 177 300 0
180 -177 -300 0
-180 177 -300 0
-180 -177 300 0
181 177 333 0
181 -177 -333 0
-181 177 -333 0
-181 -177 333 0
183 182 252 0
183 -182 -252 0
-183 182 -252 0
-183 -182 252 0
184 182 287 0
184 -182 -287 0
-184 182 -287 0
-184 -182 287 0
185 182 377 0
185 -182 -377 0
-185 182 -377 0
-185 -182 377 0
187 186 289 0
187 -186 -289 0
-187 186 -289 0
-187 -186 289 0
189 188 222 0
189 -188 -222 0
-189 188 -222 0
-189 -188 222 0
191 190 228 0
191 -190 -228 0
-191 190 -228 0
-191 -190 228 0
192 190 266 0
192 -190 -266 0
-192 190 -266 0
-192 -190 266 0
193 190 315 0
193 -190 -315 0
-193 190 -315 0
-193 -190 315 0
194 190 326 0
194 -190 -326 0
-194 190 -326 0
-194 -190 326 0
195 190 378 0
195 -190 -378 0
-195 190 -378 0
-195 -190 378 0
197 196 252 0
197 -196 -252 0
-197 196 -252 0
-197 -196 252 0
198 196 306 0
198 -196 -306 0
-198 196 -306 0
-198 -196 306 0
199 196 323 0
199 -196 -323 0
-199 196 -323 0
-199 -196 323 0
200 196 349 0
200 -196 -349 0
-200 196 -349 0
-200 -196 349 0
201 196 356 0
201 -196 -356 0
-201 196 -356 0
-201 -196 356 0
202 196 358 0
202 -196 -358 0
-202 196 -358 0
-202 -196 358 0
203 196 367 0
203 -196 -367 0
-203 196 -367 0
-203 -196 367 0
204 196 378 0
204 -196 -378 0
-204 196 -378 0
-204 -196 378 0
206 205 252 0
206 -205 -252 0
-206 205 -252 0
-206 -205 252 0
207 205 281 0
207 -205 -281 0
-207 205 -281 0
-207 -205 281 0
208 205 301 0
208 -205 -301 0
-208 205 -301 0
-208 -205 301 0
209 205 352 0
209 -205 -352 0
-209 205 -352 0
-209 -205 352 0
211 210 249 0
211 -210 -249 0
-211 210 -249 0
-211 -210 249 0
212 210 374 0
212 -210 -374 0
-212 210 -374 0
-212 -210 374 0
214 213 374 0
214 -213 -374 0
-214 213 -374 0
-214 -213 374 0
216 215 234 0
216 -215 -234 0
-216 215 -234 0
-216 -215 234 0
217 215 240 0
217 -215 -240 0
-217 215 -240 0
-217 -215 240 0
218 215 249 0
218 -215 -249 0
-218 215 -249 0
-218 -215 249 0
219 215 264 0
219 -215 -264 0
-219 215 -264 0
-219 -215 264 0
220 215 326 0
220 -215 -326 0
-220 215 -326 0
-220 -215 326 0
221 215 378 0
221 -215 -378 0
-221 215 -378 0
-221 -215 378 0
223 222 228 0
223 -222 -228 0
-223 222 -228 0
-223 -222 228 0
224 222 297 0
224 -222 -297 0
-224 222 -297 0
-224 -222 297 0
225 222 340 0
225 -222 -340 0
-225 222 -340 0
-225 -222 340 0
226 222 354 0
226 -222 -354 0
-226 222 -354 0
-226 -222 354 0
227 222 379 0
227 -222 -379 0
-227 222 -379 0
-227 -222 379 0
229 228 283 0
229 -228 -283 0
-229 228 -283 0
-229 -228 283 0
230 228 338 0
230 -228 -338 0
-230 228 -338 0
-230 -228 338 0
232 231 277 0
232 -231 -277 0
-232 231 -277 0
-232 -231 277 0
233 231 319 0
233 -231 -319 0
-233 231 -319 0
-233 -231 319 0
236 235 301 0
236 -235 -301 0
-236 235 -301 0
-236 -235 301 0
237 235 306 0
237 -235 -306 0
-237 235 -306 0
-237 -235 306 0
238 235 308 0
238 -235 -308 0
-238 235 -308 0
-238 -235 308 0
239 235 376 0
239 -235 -376 0
-239 235 -376 0
-239 -235 376 0
241 240 289 0
241 -240 -289 0
-241 240 -289 0
-241 -240 289 0
242 240 301 0
242 -240 -301 0
-242 240 -301 0
-242 -240 301 0
243 240 338 0
243 -240 -338 0
-243 240 -338 0
-243 -240 338 0
245 244 266 0
245 -244 -266 0
-245 244 -266 0
-245 -244 266 0
246 244 306 0
246 -244 -306 0
-246 244 -306 0
-246 -244 306 0
247 244 365 0
247 -244 -365 0
-247 244 -365 0
-247 -244 365 0
248 244 376 0
248 -244 -376 0
-248 244 -376 0
-248 -244 376 0
251 250 376 0
251 -250 -376 0
-251 250 -376 0
-251 -250 376 0
253 252 259 0
253 -252 -259 0
-253 252 -259 0
-253 -252 259 0
254 252 277 0
254 -252 -277 0
-254 252 -277 0
-254 -252 277 0
255 252 283 0
255 -252 -283 0
-255 252 -283 0
-255 -252 283 0
256 252 287 0
256 -252 -287 0
-256 252 -287 0
-256 -252 287 0
257 252 329 0
257 -252 -329 0
-257 252 -329 0
-257 -252 329 0
258 252 378 0
258 -252 -378 0
-258 252 -378 0
-258 -252 378 0
260 259 306 0
260 -259 -306 0
-260 259 -306 0
-260 -259 306 0
261 259 308 0
261 -259 -308 0
-261 259 -308 0
-261 -259 308 0
262 259 315 0
262 -259 -315 0
-262 259 -315 0
-262 -259 315 0
263 259 364 0
263 -259 -364 0
-263 259 -364 0
-263 -259 364 0
265 264 378 0
265 -264 -378 0
-265 264 -378 0
-265 -264 378 0
267 266 337 0
267 -266 -337 0
-267 266 -337 0
-267 -266 337 0
268 266 367 0
268 -266 -367 0
-268 266 -367 0
-268 -266 367 0
269 266 376 0
269 -266 -376 0
-269 266 -376 0
-269 -266 376 0
271 270 300 0
271 -270 -300 0
-271 270 -300 0
-271 -270 300 0
272 270 360 0
272 -270 -360 0
-272 270 -360 0
-272 -270 360 0
274 273 301 0
274 -273 -301 0
-274 273 -301 0
-274 -273 301 0
275 273 308 0
275 -273 -308 0
-275 273 -308 0
-275 -273 308 0
276 273 354 0
276 -273 -354 0
-276 273 -354 0
-276 -273 354 0
279 278 354 0
279 -278 -354 0
-279 278 -354 0
-279 -278 354 0
280 278 377 0
280 -278 -377 0
-280 278 -377 0
-280 -278 377 0
282 281 293 0
282 -281 -293 0
-282 281 -293 0
-282 -281 293 0
285 284 289 0
285 -284 -289 0
-285 284 -289 0
-285 -284 289 0
286 284 352 0
286 -284 -352 0
-286 284 -352 0
-286 -284 352 0
288 287 338 0
288 -287 -338 0
-288 287 -338 0
-288 -287 338 0
290 289 306 0
290 -289 -306 0
-290 289 -306 0
-290 -289 306 0
291 289 323 0
291 -289 -323 0
-291 289 -323 0
-291 -289 323 0
292 289 353 0
292 -289 -353 0
-292 289 -353 0
-292 -289 353 0
294 293 340 0
294 -293 -340 0
-294 293 -340 0
-294 -293 340 0
295 293 367 0
295 -293 -367 0
-295 293 -367 0
-295 -293 367 0
296 293 377 0
296 -293 -377 0
-296 293 -377 0
-296 -293 377 0
298 297 315 0
298 -297 -315 0
-298 297 -315 0
-298 -297 315 0
299 297 353 0
299 -297 -353 0
-299 297 -353 0
-299 -297 353 0
302 301 329 0
302 -301 -329 0
-302 301 -329 0
-302 -301 329 0
303 301 376 0
303 -301 -376 0
-303 301 -376 0
-303 -301 376 0
305 304 308 0
305 -304 -308 0
-305 304 -308 0
-305 -304 308 0
307 306 330 0
307 -306 -330 0
-307 306 -330 0
-307 -306 330 0
309 308 330 0
309 -308 -330 0
-309 308 -330 0
-309 -308 330 0
310 308 349 0
310 -308 -349 0
-310 308 -349 0
-310 -308 349 0
312 311 338 0
312 -311 -338 0
-312 311 -338 0
-312 -311 338 0
313 311 356 0
313 -311 -356 0
-313 311 -356 0
-313 -311 356 0
314 311 374 0
314 -311 -374 0
-314 311 -374 0
-314 -311 374 0
316 315 319 0
316 -315 -319 0
-316 315 -319 0
-316 -315 319 0
318 317 355 0
318 -317 -355 0
-318 317 -355 0
-318 -317 355 0
320 319 326 0
320 -319 -326 0
-320 319 -326 0
-320 -319 326 0
321 319 358 0
321 -319 -358 0
-321 319 -358 0
-321 -319 358 0
322 319 377 0
322 -319 -377 0
-322 319 -377 0
-322 -319 377 0
324 323 349 0
324 -323 -349 0
-324 323 -349 0
-324 -323 349 0
325 323 375 0
325 -323 -375 0
-325 323 -375 0
-325 -323 375 0
327 326 365 0
327 -326 -365 0
-327 326 -365 0
-327 -326 365 0
328 326 381 0
328 -326 -381 0
-328 326 -381 0
-328 -326 381 0
331 330 353 0
331 -330 -353 0
-331 330 -353 0
-331 -330 353 0
332 330 371 0
332 -330 -371 0
-332 330 -371 0
-332 -330 371 0
334 333 358 0
334 -333 -358 0
-334 333 -358 0
-334 -333 358 0
335 333 364 0
335 -333 -364 0
-335 333 -364 0
-335 -333 364 0
336 333 376 0
336 -333 -376 0
-336 333 -376 0
-336 -333 376 0
341 340 373 0
341 -340 -373 0
-341 340 -373 0
-341 -340 373 0
343 342 380 0
343 -342 -380 0
-343 342 -380 0
-343 -342 380 0
345 344 358 0
345 -344 -358 0
-345 344 -358 0
-345 -344 358 0
346 344 377 0
346 -344 -377 0
-346 344 -377 0
-346 -344 377 0
348 347 381 0
348 -347 -381 0
-348 347 -381 0
-348 -347 381 0
350 349 369 0
350 -349 -369 0
-350 349 -369 0
-350 -349 369 0
351 349 380 0
351 -349 -380 0
-351 349 -380 0
-351 -349 380 0
357 356 373 0
357 -356 -373 0
-357 356 -373 0
-357 -356 373 0
359 358 379 0
359 -358 -379 0
-359 358 -379 0
-359 -358 379 0
361 360 369 0
361 -360 -369 0
-361 360 -369 0
-361 -360 369 0
362 360 375 0
362 -360 -375 0
-362 360 -375 0
-362 -360 375 0
363 360 380 0
363 -360 -380 0
-363 360 -380 0
-363 -360 380 0
366 365 373 0
366 -365 -373 0
-366 365 -373 0
-366 -365 373 0
368 367 376 0
368 -367 -376 0
-368 367 -376 0
-368 -367 376 0
370 369 380 0
370 -369 -380 0
-370 369 -380 0
-370 -369 380 0
372 371 376 0
372 -371 -376 0
-372 371 -376 0
-372 -371 376 0
